certificates/rado_a10_c152_N21.cnf
c Rad2 upper bound instance: x1 + 10*x2 - x3 = 152, interval [1,21]
p cnf 21 88
1 9 16 0
-1 -9 -16 0
1 17 19 0
-1 -17 -19 0
2 10 16 0
-2 -10 -16 0
2 17 20 0
-2 -17 -20 0
1 3 15 0
-1 -3 -15 0
3 11 16 0
-3 -11 -16 0
3 17 21 0
-3 -17 -21 0
2 4 15 0
-2 -4 -15 0
4 12 16 0
-4 -12 -16 0
3 5 15 0
-3 -5 -15 0
5 13 16 0
-5 -13 -16 0
4 6 15 0
-4 -6 -15 0
6 14 16 0
-6 -14 -16 0
5 7 15 0
-5 -7 -15 0
7 15 16 0
-7 -15 -16 0
6 8 15 0
-6 -8 -15 0
8 16 0
-8 -16 0
7 9 15 0
-7 -9 -15 0
9 16 17 0
-9 -16 -17 0
8 10 15 0
-8 -10 -15 0
10 16 18 0
-10 -16 -18 0
9 11 15 0
-9 -11 -15 0
11 16 19 0
-11 -16 -19 0
10 12 15 0
-10 -12 -15 0
12 16 20 0
-12 -16 -20 0
1 13 14 0
-1 -13 -14 0
11 13 15 0
-11 -13 -15 0
13 16 21 0
-13 -16 -21 0
2 14 0
-2 -14 0
12 14 15 0
-12 -14 -15 0
3 14 15 0
-3 -14 -15 0
13 15 0
-13 -15 0
4 14 16 0
-4 -14 -16 0
14 15 16 0
-14 -15 -16 0
5 14 17 0
-5 -14 -17 0
15 17 0
-15 -17 0
6 14 18 0
-6 -14 -18 0
15 16 18 0
-15 -16 -18 0
7 14 19 0
-7 -14 -19 0
15 17 19 0
-15 -17 -19 0
8 14 20 0
-8 -14 -20 0
15 18 20 0
-15 -18 -20 0
9 14 21 0
-9 -14 -21 0
15 19 21 0
-15 -19 -21 0
