certificates/rado_a10_c152_N21.drat
-19 -21 0
d -19 -15 -21 0
-17 -20 -21 0
-14 -15 -20 0
-20 -21 0
d -17 -20 -21 0
17 20 0
d 17 2 20 0
-17 -21 0
d -17 -3 -21 0
-21 0
-14 -17 0
-17 0
20 0
3 0
15 0
-1 0
-5 0
-14 0
-13 0
-18 0
19 0
0
